<number of tasks>
100

<cycle time>
1000

<order strength>
0.196


<task times>
1 92
2 523
3 84
4 63
5 173
6 344
7 394
8 322
9 498
10 310
11 164
12 504
13 571
14 105
15 182
16 34
17 108
18 528
19 114
20 247
21 210
22 183
23 116
24 236
25 48
26 47
27 49
28 285
29 99
30 103
31 150
32 156
33 60
34 173
35 135
36 86
37 532
38 193
39 49
40 68
41 261
42 121
43 261
44 281
45 275
46 288
47 554
48 183
49 55
50 173
51 517
52 510
53 126
54 203
55 238
56 56
57 506
58 452
59 42
60 472
61 282
62 491
63 139
64 301
65 117
66 162
67 38
68 473
69 279
70 488
71 263
72 485
73 48
74 320
75 59
76 98
77 338
78 372
79 474
80 161
81 411
82 99
83 216
84 70
85 110
86 407
87 208
88 22
89 111
90 108
91 491
92 352
93 39
94 171
95 275
96 105
97 398
98 324
99 491
100 162

<precedence relations>
1,10
2,12
3,9
3,16
4,11
4,13
4,15
5,62
5,100
6,13
6,14
8,14
9,18
10,19
11,20
12,21
13,22
13,50
14,24
14,59
15,16
15,17
15,23
16,81
17,73
18,25
19,28
20,25
21,29
22,27
23,26
23,30
24,31
24,32
25,73
26,36
27,35
28,37
28,42
29,42
29,49
30,33
30,34
30,38
30,39
30,41
31,40
32,79
33,81
34,73
35,45
36,46
38,48
39,44
40,43
40,49
41,68
41,81
42,47
43,81
44,81
45,53
46,54
47,52
48,50
48,55
48,56
49,51
50,81
51,81
52,58
53,57
54,59
54,60
54,61
54,63
55,62
56,62
57,65
58,66
59,68
59,69
62,75
63,64
63,67
64,73
65,75
66,77
66,78
67,74
67,79
68,80
69,70
69,71
69,72
69,76
70,81
71,81
72,81
73,82
73,83
73,84
73,85
73,86
73,87
73,88
74,89
77,91
78,90
81,92
81,93
81,94
81,95
81,96
81,97
81,98
88,100
89,99

<end>
